NAME           C:\Bruker\Hvattum\knapsack\Problems\class4\100-10-01.mps
ROWS
 N  OBJ
 L  CONSTR1
 L  CONSTR2
 L  CONSTR3
 L  CONSTR4
 L  CONSTR5
 L  CONSTR6
 L  CONSTR7
 L  CONSTR8
 L  CONSTR9
 L  CONSTR10
COLUMNS
    INT0001   'MARKER'  'INTORG'
    X1        OBJ       803
    X1        CONSTR1   300
    X1        CONSTR2   297
    X1        CONSTR3   24
    X1        CONSTR4   791
    X1        CONSTR5   98
    X1        CONSTR6   4
    X1        CONSTR7   926
    X1        CONSTR8   682
    X1        CONSTR9   942
    X1        CONSTR10  608
    X2        OBJ       728
    X2        CONSTR1   78
    X2        CONSTR2   539
    X2        CONSTR3   638
    X2        CONSTR4   715
    X2        CONSTR5   947
    X2        CONSTR6   459
    X2        CONSTR7   396
    X2        CONSTR8   495
    X2        CONSTR9   431
    X2        CONSTR10  446
    X3        OBJ       743
    X3        CONSTR1   275
    X3        CONSTR2   903
    X3        CONSTR3   899
    X3        CONSTR4   560
    X3        CONSTR5   956
    X3        CONSTR6   106
    X3        CONSTR7   649
    X3        CONSTR8   207
    X3        CONSTR9   834
    X3        CONSTR10  555
    X4        OBJ       464
    X4        CONSTR1   724
    X4        CONSTR2   75
    X4        CONSTR3   982
    X4        CONSTR4   703
    X4        CONSTR5   509
    X4        CONSTR6   86
    X4        CONSTR7   219
    X4        CONSTR8   741
    X4        CONSTR9   554
    X4        CONSTR10  22
    X5        OBJ       853
    X5        CONSTR1   674
    X5        CONSTR2   384
    X5        CONSTR3   207
    X5        CONSTR4   415
    X5        CONSTR5   298
    X5        CONSTR6   392
    X5        CONSTR7   598
    X5        CONSTR8   459
    X5        CONSTR9   850
    X5        CONSTR10  45
    X6        OBJ       587
    X6        CONSTR1   227
    X6        CONSTR2   474
    X6        CONSTR3   788
    X6        CONSTR4   363
    X6        CONSTR5   728
    X6        CONSTR6   345
    X6        CONSTR7   352
    X6        CONSTR8   268
    X6        CONSTR9   484
    X6        CONSTR10  384
    X7        OBJ       856
    X7        CONSTR1   84
    X7        CONSTR2   909
    X7        CONSTR3   194
    X7        CONSTR4   239
    X7        CONSTR5   253
    X7        CONSTR6   585
    X7        CONSTR7   454
    X7        CONSTR8   898
    X7        CONSTR9   58
    X7        CONSTR10  422
    X8        OBJ       579
    X8        CONSTR1   587
    X8        CONSTR2   5
    X8        CONSTR3   455
    X8        CONSTR4   357
    X8        CONSTR5   779
    X8        CONSTR6   761
    X8        CONSTR7   493
    X8        CONSTR8   380
    X8        CONSTR9   191
    X8        CONSTR10  518
    X9        OBJ       359
    X9        CONSTR1   768
    X9        CONSTR2   97
    X9        CONSTR3   217
    X9        CONSTR4   953
    X9        CONSTR5   244
    X9        CONSTR6   193
    X9        CONSTR7   1
    X9        CONSTR8   440
    X9        CONSTR9   108
    X9        CONSTR10  80
    X10       OBJ       635
    X10       CONSTR1   51
    X10       CONSTR2   323
    X10       CONSTR3   71
    X10       CONSTR4   567
    X10       CONSTR5   208
    X10       CONSTR6   746
    X10       CONSTR7   968
    X10       CONSTR8   138
    X10       CONSTR9   75
    X10       CONSTR10  954
    X11       OBJ       661
    X11       CONSTR1   446
    X11       CONSTR2   326
    X11       CONSTR3   799
    X11       CONSTR4   368
    X11       CONSTR5   324
    X11       CONSTR6   19
    X11       CONSTR7   979
    X11       CONSTR8   413
    X11       CONSTR9   792
    X11       CONSTR10  960
    X12       OBJ       679
    X12       CONSTR1   955
    X12       CONSTR2   125
    X12       CONSTR3   539
    X12       CONSTR4   349
    X12       CONSTR5   227
    X12       CONSTR6   393
    X12       CONSTR7   240
    X12       CONSTR8   193
    X12       CONSTR9   801
    X12       CONSTR10  253
    X13       OBJ       583
    X13       CONSTR1   886
    X13       CONSTR2   578
    X13       CONSTR3   720
    X13       CONSTR4   21
    X13       CONSTR5   50
    X13       CONSTR6   73
    X13       CONSTR7   675
    X13       CONSTR8   148
    X13       CONSTR9   451
    X13       CONSTR10  285
    X14       OBJ       1026
    X14       CONSTR1   871
    X14       CONSTR2   415
    X14       CONSTR3   713
    X14       CONSTR4   874
    X14       CONSTR5   708
    X14       CONSTR6   932
    X14       CONSTR7   6
    X14       CONSTR8   348
    X14       CONSTR9   994
    X14       CONSTR10  425
    X15       OBJ       637
    X15       CONSTR1   557
    X15       CONSTR2   420
    X15       CONSTR3   443
    X15       CONSTR4   874
    X15       CONSTR5   719
    X15       CONSTR6   117
    X15       CONSTR7   373
    X15       CONSTR8   642
    X15       CONSTR9   950
    X15       CONSTR10  552
    X16       OBJ       652
    X16       CONSTR1   978
    X16       CONSTR2   581
    X16       CONSTR3   268
    X16       CONSTR4   872
    X16       CONSTR5   158
    X16       CONSTR6   389
    X16       CONSTR7   499
    X16       CONSTR8   148
    X16       CONSTR9   145
    X16       CONSTR10  513
    X17       OBJ       603
    X17       CONSTR1   336
    X17       CONSTR2   272
    X17       CONSTR3   257
    X17       CONSTR4   443
    X17       CONSTR5   787
    X17       CONSTR6   2
    X17       CONSTR7   51
    X17       CONSTR8   274
    X17       CONSTR9   512
    X17       CONSTR10  984
    X18       OBJ       583
    X18       CONSTR1   442
    X18       CONSTR2   455
    X18       CONSTR3   861
    X18       CONSTR4   56
    X18       CONSTR5   33
    X18       CONSTR6   10
    X18       CONSTR7   699
    X18       CONSTR8   830
    X18       CONSTR9   956
    X18       CONSTR10  757
    X19       OBJ       1017
    X19       CONSTR1   71
    X19       CONSTR2   895
    X19       CONSTR3   891
    X19       CONSTR4   632
    X19       CONSTR5   536
    X19       CONSTR6   184
    X19       CONSTR7   731
    X19       CONSTR8   679
    X19       CONSTR9   345
    X19       CONSTR10  219
    X20       OBJ       817
    X20       CONSTR1   222
    X20       CONSTR2   294
    X20       CONSTR3   857
    X20       CONSTR4   798
    X20       CONSTR5   60
    X20       CONSTR6   406
    X20       CONSTR7   134
    X20       CONSTR8   964
    X20       CONSTR9   52
    X20       CONSTR10  50
    X21       OBJ       633
    X21       CONSTR1   505
    X21       CONSTR2   633
    X21       CONSTR3   633
    X21       CONSTR4   255
    X21       CONSTR5   327
    X21       CONSTR6   314
    X21       CONSTR7   899
    X21       CONSTR8   82
    X21       CONSTR9   750
    X21       CONSTR10  772
    X22       OBJ       633
    X22       CONSTR1   327
    X22       CONSTR2   858
    X22       CONSTR3   620
    X22       CONSTR4   773
    X22       CONSTR5   852
    X22       CONSTR6   256
    X22       CONSTR7   312
    X22       CONSTR8   147
    X22       CONSTR9   776
    X22       CONSTR10  956
    X23       OBJ       672
    X23       CONSTR1   706
    X23       CONSTR2   215
    X23       CONSTR3   336
    X23       CONSTR4   36
    X23       CONSTR5   128
    X23       CONSTR6   3
    X23       CONSTR7   402
    X23       CONSTR8   289
    X23       CONSTR9   653
    X23       CONSTR10  434
    X24       OBJ       540
    X24       CONSTR1   86
    X24       CONSTR2   157
    X24       CONSTR3   912
    X24       CONSTR4   692
    X24       CONSTR5   105
    X24       CONSTR6   544
    X24       CONSTR7   997
    X24       CONSTR8   557
    X24       CONSTR9   15
    X24       CONSTR10  427
    X25       OBJ       732
    X25       CONSTR1   596
    X25       CONSTR2   807
    X25       CONSTR3   500
    X25       CONSTR4   239
    X25       CONSTR5   968
    X25       CONSTR6   903
    X25       CONSTR7   449
    X25       CONSTR8   396
    X25       CONSTR9   515
    X25       CONSTR10  417
    X26       OBJ       879
    X26       CONSTR1   257
    X26       CONSTR2   322
    X26       CONSTR3   361
    X26       CONSTR4   485
    X26       CONSTR5   314
    X26       CONSTR6   839
    X26       CONSTR7   494
    X26       CONSTR8   805
    X26       CONSTR9   296
    X26       CONSTR10  676
    X27       OBJ       1031
    X27       CONSTR1   726
    X27       CONSTR2   670
    X27       CONSTR3   66
    X27       CONSTR4   980
    X27       CONSTR5   978
    X27       CONSTR6   640
    X27       CONSTR7   621
    X27       CONSTR8   679
    X27       CONSTR9   223
    X27       CONSTR10  227
    X28       OBJ       801
    X28       CONSTR1   420
    X28       CONSTR2   997
    X28       CONSTR3   469
    X28       CONSTR4   381
    X28       CONSTR5   368
    X28       CONSTR6   893
    X28       CONSTR7   938
    X28       CONSTR8   912
    X28       CONSTR9   19
    X28       CONSTR10  693
    X29       OBJ       892
    X29       CONSTR1   835
    X29       CONSTR2   315
    X29       CONSTR3   789
    X29       CONSTR4   886
    X29       CONSTR5   318
    X29       CONSTR6   606
    X29       CONSTR7   211
    X29       CONSTR8   630
    X29       CONSTR9   192
    X29       CONSTR10  279
    X30       OBJ       1030
    X30       CONSTR1   792
    X30       CONSTR2   101
    X30       CONSTR3   717
    X30       CONSTR4   875
    X30       CONSTR5   826
    X30       CONSTR6   660
    X30       CONSTR7   749
    X30       CONSTR8   230
    X30       CONSTR9   914
    X30       CONSTR10  50
    X31       OBJ       844
    X31       CONSTR1   739
    X31       CONSTR2   489
    X31       CONSTR3   244
    X31       CONSTR4   592
    X31       CONSTR5   407
    X31       CONSTR6   622
    X31       CONSTR7   169
    X31       CONSTR8   943
    X31       CONSTR9   388
    X31       CONSTR10  249
    X32       OBJ       659
    X32       CONSTR1   373
    X32       CONSTR2   784
    X32       CONSTR3   73
    X32       CONSTR4   345
    X32       CONSTR5   123
    X32       CONSTR6   86
    X32       CONSTR7   118
    X32       CONSTR8   254
    X32       CONSTR9   272
    X32       CONSTR10  199
    X33       OBJ       952
    X33       CONSTR1   796
    X33       CONSTR2   479
    X33       CONSTR3   780
    X33       CONSTR4   863
    X33       CONSTR5   617
    X33       CONSTR6   475
    X33       CONSTR7   413
    X33       CONSTR8   54
    X33       CONSTR9   474
    X33       CONSTR10  422
    X34       OBJ       917
    X34       CONSTR1   769
    X34       CONSTR2   836
    X34       CONSTR3   801
    X34       CONSTR4   778
    X34       CONSTR5   943
    X34       CONSTR6   297
    X34       CONSTR7   367
    X34       CONSTR8   746
    X34       CONSTR9   673
    X34       CONSTR10  485
    X35       OBJ       1078
    X35       CONSTR1   745
    X35       CONSTR2   224
    X35       CONSTR3   894
    X35       CONSTR4   985
    X35       CONSTR5   757
    X35       CONSTR6   420
    X35       CONSTR7   514
    X35       CONSTR8   563
    X35       CONSTR9   229
    X35       CONSTR10  747
    X36       OBJ       1012
    X36       CONSTR1   540
    X36       CONSTR2   917
    X36       CONSTR3   185
    X36       CONSTR4   520
    X36       CONSTR5   326
    X36       CONSTR6   672
    X36       CONSTR7   726
    X36       CONSTR8   349
    X36       CONSTR9   490
    X36       CONSTR10  680
    X37       OBJ       709
    X37       CONSTR1   966
    X37       CONSTR2   898
    X37       CONSTR3   947
    X37       CONSTR4   385
    X37       CONSTR5   620
    X37       CONSTR6   928
    X37       CONSTR7   802
    X37       CONSTR8   878
    X37       CONSTR9   6
    X37       CONSTR10  353
    X38       OBJ       699
    X38       CONSTR1   450
    X38       CONSTR2   894
    X38       CONSTR3   680
    X38       CONSTR4   110
    X38       CONSTR5   687
    X38       CONSTR6   409
    X38       CONSTR7   170
    X38       CONSTR8   552
    X38       CONSTR9   753
    X38       CONSTR10  545
    X39       OBJ       1091
    X39       CONSTR1   721
    X39       CONSTR2   347
    X39       CONSTR3   917
    X39       CONSTR4   905
    X39       CONSTR5   63
    X39       CONSTR6   969
    X39       CONSTR7   440
    X39       CONSTR8   721
    X39       CONSTR9   670
    X39       CONSTR10  254
    X40       OBJ       887
    X40       CONSTR1   242
    X40       CONSTR2   576
    X40       CONSTR3   275
    X40       CONSTR4   501
    X40       CONSTR5   439
    X40       CONSTR6   696
    X40       CONSTR7   501
    X40       CONSTR8   367
    X40       CONSTR9   278
    X40       CONSTR10  128
    X41       OBJ       802
    X41       CONSTR1   559
    X41       CONSTR2   434
    X41       CONSTR3   887
    X41       CONSTR4   69
    X41       CONSTR5   614
    X41       CONSTR6   694
    X41       CONSTR7   132
    X41       CONSTR8   803
    X41       CONSTR9   158
    X41       CONSTR10  710
    X42       OBJ       1016
    X42       CONSTR1   352
    X42       CONSTR2   834
    X42       CONSTR3   792
    X42       CONSTR4   944
    X42       CONSTR5   533
    X42       CONSTR6   276
    X42       CONSTR7   679
    X42       CONSTR8   132
    X42       CONSTR9   541
    X42       CONSTR10  469
    X43       OBJ       757
    X43       CONSTR1   990
    X43       CONSTR2   243
    X43       CONSTR3   986
    X43       CONSTR4   922
    X43       CONSTR5   522
    X43       CONSTR6   507
    X43       CONSTR7   671
    X43       CONSTR8   982
    X43       CONSTR9   795
    X43       CONSTR10  97
    X44       OBJ       810
    X44       CONSTR1   951
    X44       CONSTR2   940
    X44       CONSTR3   424
    X44       CONSTR4   106
    X44       CONSTR5   174
    X44       CONSTR6   431
    X44       CONSTR7   373
    X44       CONSTR8   221
    X44       CONSTR9   163
    X44       CONSTR10  585
    X45       OBJ       1023
    X45       CONSTR1   875
    X45       CONSTR2   403
    X45       CONSTR3   167
    X45       CONSTR4   680
    X45       CONSTR5   439
    X45       CONSTR6   252
    X45       CONSTR7   164
    X45       CONSTR8   891
    X45       CONSTR9   998
    X45       CONSTR10  398
    X46       OBJ       757
    X46       CONSTR1   329
    X46       CONSTR2   326
    X46       CONSTR3   108
    X46       CONSTR4   315
    X46       CONSTR5   862
    X46       CONSTR6   910
    X46       CONSTR7   295
    X46       CONSTR8   751
    X46       CONSTR9   528
    X46       CONSTR10  780
    X47       OBJ       518
    X47       CONSTR1   803
    X47       CONSTR2   408
    X47       CONSTR3   389
    X47       CONSTR4   735
    X47       CONSTR5   981
    X47       CONSTR6   206
    X47       CONSTR7   137
    X47       CONSTR8   296
    X47       CONSTR9   394
    X47       CONSTR10  700
    X48       OBJ       632
    X48       CONSTR1   892
    X48       CONSTR2   353
    X48       CONSTR3   258
    X48       CONSTR4   912
    X48       CONSTR5   972
    X48       CONSTR6   260
    X48       CONSTR7   860
    X48       CONSTR8   406
    X48       CONSTR9   65
    X48       CONSTR10  361
    X49       OBJ       1091
    X49       CONSTR1   52
    X49       CONSTR2   945
    X49       CONSTR3   941
    X49       CONSTR4   904
    X49       CONSTR5   789
    X49       CONSTR6   666
    X49       CONSTR7   184
    X49       CONSTR8   689
    X49       CONSTR9   614
    X49       CONSTR10  509
    X50       OBJ       595
    X50       CONSTR1   681
    X50       CONSTR2   307
    X50       CONSTR3   963
    X50       CONSTR4   585
    X50       CONSTR5   573
    X50       CONSTR6   464
    X50       CONSTR7   358
    X50       CONSTR8   721
    X50       CONSTR9   349
    X50       CONSTR10  36
    X51       OBJ       630
    X51       CONSTR1   388
    X51       CONSTR2   48
    X51       CONSTR3   47
    X51       CONSTR4   877
    X51       CONSTR5   262
    X51       CONSTR6   784
    X51       CONSTR7   299
    X51       CONSTR8   77
    X51       CONSTR9   198
    X51       CONSTR10  216
    X52       OBJ       916
    X52       CONSTR1   824
    X52       CONSTR2   302
    X52       CONSTR3   869
    X52       CONSTR4   475
    X52       CONSTR5   989
    X52       CONSTR6   372
    X52       CONSTR7   696
    X52       CONSTR8   199
    X52       CONSTR9   451
    X52       CONSTR10  357
    X53       OBJ       759
    X53       CONSTR1   892
    X53       CONSTR2   287
    X53       CONSTR3   711
    X53       CONSTR4   136
    X53       CONSTR5   573
    X53       CONSTR6   740
    X53       CONSTR7   263
    X53       CONSTR8   803
    X53       CONSTR9   325
    X53       CONSTR10  912
    X54       OBJ       674
    X54       CONSTR1   381
    X54       CONSTR2   621
    X54       CONSTR3   117
    X54       CONSTR4   92
    X54       CONSTR5   184
    X54       CONSTR6   948
    X54       CONSTR7   966
    X54       CONSTR8   187
    X54       CONSTR9   136
    X54       CONSTR10  927
    X55       OBJ       553
    X55       CONSTR1   52
    X55       CONSTR2   546
    X55       CONSTR3   170
    X55       CONSTR4   495
    X55       CONSTR5   604
    X55       CONSTR6   998
    X55       CONSTR7   570
    X55       CONSTR8   191
    X55       CONSTR9   570
    X55       CONSTR10  188
    X56       OBJ       703
    X56       CONSTR1   774
    X56       CONSTR2   749
    X56       CONSTR3   725
    X56       CONSTR4   799
    X56       CONSTR5   828
    X56       CONSTR6   314
    X56       CONSTR7   155
    X56       CONSTR8   769
    X56       CONSTR9   635
    X56       CONSTR10  229
    X57       OBJ       530
    X57       CONSTR1   372
    X57       CONSTR2   869
    X57       CONSTR3   221
    X57       CONSTR4   300
    X57       CONSTR5   336
    X57       CONSTR6   887
    X57       CONSTR7   629
    X57       CONSTR8   174
    X57       CONSTR9   921
    X57       CONSTR10  161
    X58       OBJ       790
    X58       CONSTR1   368
    X58       CONSTR2   147
    X58       CONSTR3   131
    X58       CONSTR4   479
    X58       CONSTR5   503
    X58       CONSTR6   968
    X58       CONSTR7   12
    X58       CONSTR8   999
    X58       CONSTR9   192
    X58       CONSTR10  309
    X59       OBJ       628
    X59       CONSTR1   969
    X59       CONSTR2   870
    X59       CONSTR3   370
    X59       CONSTR4   540
    X59       CONSTR5   1000
    X59       CONSTR6   257
    X59       CONSTR7   164
    X59       CONSTR8   84
    X59       CONSTR9   919
    X59       CONSTR10  765
    X60       OBJ       671
    X60       CONSTR1   929
    X60       CONSTR2   329
    X60       CONSTR3   371
    X60       CONSTR4   125
    X60       CONSTR5   515
    X60       CONSTR6   230
    X60       CONSTR7   261
    X60       CONSTR8   598
    X60       CONSTR9   657
    X60       CONSTR10  834
    X61       OBJ       667
    X61       CONSTR1   378
    X61       CONSTR2   115
    X61       CONSTR3   792
    X61       CONSTR4   820
    X61       CONSTR5   954
    X61       CONSTR6   62
    X61       CONSTR7   471
    X61       CONSTR8   886
    X61       CONSTR9   169
    X61       CONSTR10  220
    X62       OBJ       885
    X62       CONSTR1   449
    X62       CONSTR2   450
    X62       CONSTR3   460
    X62       CONSTR4   712
    X62       CONSTR5   751
    X62       CONSTR6   410
    X62       CONSTR7   833
    X62       CONSTR8   747
    X62       CONSTR9   643
    X62       CONSTR10  310
    X63       OBJ       527
    X63       CONSTR1   249
    X63       CONSTR2   534
    X63       CONSTR3   264
    X63       CONSTR4   258
    X63       CONSTR5   627
    X63       CONSTR6   718
    X63       CONSTR7   958
    X63       CONSTR8   63
    X63       CONSTR9   755
    X63       CONSTR10  538
    X64       OBJ       970
    X64       CONSTR1   255
    X64       CONSTR2   592
    X64       CONSTR3   518
    X64       CONSTR4   299
    X64       CONSTR5   776
    X64       CONSTR6   543
    X64       CONSTR7   805
    X64       CONSTR8   225
    X64       CONSTR9   548
    X64       CONSTR10  399
    X65       OBJ       683
    X65       CONSTR1   123
    X65       CONSTR2   609
    X65       CONSTR3   111
    X65       CONSTR4   776
    X65       CONSTR5   676
    X65       CONSTR6   553
    X65       CONSTR7   78
    X65       CONSTR8   655
    X65       CONSTR9   638
    X65       CONSTR10  247
    X66       OBJ       716
    X66       CONSTR1   745
    X66       CONSTR2   25
    X66       CONSTR3   127
    X66       CONSTR4   587
    X66       CONSTR5   899
    X66       CONSTR6   397
    X66       CONSTR7   352
    X66       CONSTR8   10
    X66       CONSTR9   576
    X66       CONSTR10  624
    X67       OBJ       714
    X67       CONSTR1   978
    X67       CONSTR2   16
    X67       CONSTR3   370
    X67       CONSTR4   358
    X67       CONSTR5   870
    X67       CONSTR6   728
    X67       CONSTR7   857
    X67       CONSTR8   984
    X67       CONSTR9   666
    X67       CONSTR10  699
    X68       OBJ       919
    X68       CONSTR1   862
    X68       CONSTR2   392
    X68       CONSTR3   875
    X68       CONSTR4   503
    X68       CONSTR5   974
    X68       CONSTR6   640
    X68       CONSTR7   253
    X68       CONSTR8   880
    X68       CONSTR9   133
    X68       CONSTR10  154
    X69       OBJ       504
    X69       CONSTR1   302
    X69       CONSTR2   202
    X69       CONSTR3   121
    X69       CONSTR4   815
    X69       CONSTR5   516
    X69       CONSTR6   306
    X69       CONSTR7   548
    X69       CONSTR8   378
    X69       CONSTR9   709
    X69       CONSTR10  748
    X70       OBJ       703
    X70       CONSTR1   549
    X70       CONSTR2   5
    X70       CONSTR3   69
    X70       CONSTR4   168
    X70       CONSTR5   5
    X70       CONSTR6   471
    X70       CONSTR7   250
    X70       CONSTR8   386
    X70       CONSTR9   794
    X70       CONSTR10  77
    X71       OBJ       924
    X71       CONSTR1   229
    X71       CONSTR2   818
    X71       CONSTR3   396
    X71       CONSTR4   979
    X71       CONSTR5   891
    X71       CONSTR6   118
    X71       CONSTR7   75
    X71       CONSTR8   804
    X71       CONSTR9   457
    X71       CONSTR10  575
    X72       OBJ       533
    X72       CONSTR1   418
    X72       CONSTR2   195
    X72       CONSTR3   485
    X72       CONSTR4   658
    X72       CONSTR5   848
    X72       CONSTR6   499
    X72       CONSTR7   55
    X72       CONSTR8   451
    X72       CONSTR9   334
    X72       CONSTR10  553
    X73       OBJ       510
    X73       CONSTR1   389
    X73       CONSTR2   444
    X73       CONSTR3   433
    X73       CONSTR4   840
    X73       CONSTR5   218
    X73       CONSTR6   463
    X73       CONSTR7   823
    X73       CONSTR8   360
    X73       CONSTR9   134
    X73       CONSTR10  454
    X74       OBJ       993
    X74       CONSTR1   768
    X74       CONSTR2   571
    X74       CONSTR3   305
    X74       CONSTR4   984
    X74       CONSTR5   664
    X74       CONSTR6   987
    X74       CONSTR7   187
    X74       CONSTR8   779
    X74       CONSTR9   105
    X74       CONSTR10  161
    X75       OBJ       840
    X75       CONSTR1   961
    X75       CONSTR2   948
    X75       CONSTR3   589
    X75       CONSTR4   974
    X75       CONSTR5   79
    X75       CONSTR6   916
    X75       CONSTR7   679
    X75       CONSTR8   364
    X75       CONSTR9   847
    X75       CONSTR10  640
    X76       OBJ       538
    X76       CONSTR1   186
    X76       CONSTR2   154
    X76       CONSTR3   908
    X76       CONSTR4   532
    X76       CONSTR5   542
    X76       CONSTR6   425
    X76       CONSTR7   627
    X76       CONSTR8   154
    X76       CONSTR9   949
    X76       CONSTR10  693
    X77       OBJ       909
    X77       CONSTR1   657
    X77       CONSTR2   552
    X77       CONSTR3   460
    X77       CONSTR4   765
    X77       CONSTR5   938
    X77       CONSTR6   198
    X77       CONSTR7   680
    X77       CONSTR8   897
    X77       CONSTR9   986
    X77       CONSTR10  28
    X78       OBJ       884
    X78       CONSTR1   717
    X78       CONSTR2   567
    X78       CONSTR3   214
    X78       CONSTR4   962
    X78       CONSTR5   397
    X78       CONSTR6   525
    X78       CONSTR7   626
    X78       CONSTR8   572
    X78       CONSTR9   400
    X78       CONSTR10  487
    X79       OBJ       639
    X79       CONSTR1   254
    X79       CONSTR2   820
    X79       CONSTR3   1
    X79       CONSTR4   851
    X79       CONSTR5   660
    X79       CONSTR6   435
    X79       CONSTR7   44
    X79       CONSTR8   863
    X79       CONSTR9   747
    X79       CONSTR10  111
    X80       OBJ       811
    X80       CONSTR1   533
    X80       CONSTR2   243
    X80       CONSTR3   389
    X80       CONSTR4   323
    X80       CONSTR5   397
    X80       CONSTR6   677
    X80       CONSTR7   78
    X80       CONSTR8   864
    X80       CONSTR9   47
    X80       CONSTR10  424
    X81       OBJ       1000
    X81       CONSTR1   733
    X81       CONSTR2   537
    X81       CONSTR3   972
    X81       CONSTR4   963
    X81       CONSTR5   567
    X81       CONSTR6   301
    X81       CONSTR7   179
    X81       CONSTR8   522
    X81       CONSTR9   767
    X81       CONSTR10  112
    X82       OBJ       267
    X82       CONSTR1   144
    X82       CONSTR2   358
    X82       CONSTR3   31
    X82       CONSTR4   904
    X82       CONSTR5   183
    X82       CONSTR6   329
    X82       CONSTR7   116
    X82       CONSTR8   317
    X82       CONSTR9   63
    X82       CONSTR10  17
    X83       OBJ       632
    X83       CONSTR1   208
    X83       CONSTR2   260
    X83       CONSTR3   426
    X83       CONSTR4   185
    X83       CONSTR5   96
    X83       CONSTR6   775
    X83       CONSTR7   950
    X83       CONSTR8   575
    X83       CONSTR9   331
    X83       CONSTR10  95
    X84       OBJ       937
    X84       CONSTR1   928
    X84       CONSTR2   706
    X84       CONSTR3   836
    X84       CONSTR4   507
    X84       CONSTR5   592
    X84       CONSTR6   699
    X84       CONSTR7   866
    X84       CONSTR8   337
    X84       CONSTR9   327
    X84       CONSTR10  597
    X85       OBJ       875
    X85       CONSTR1   919
    X85       CONSTR2   471
    X85       CONSTR3   986
    X85       CONSTR4   762
    X85       CONSTR5   846
    X85       CONSTR6   892
    X85       CONSTR7   900
    X85       CONSTR8   375
    X85       CONSTR9   675
    X85       CONSTR10  87
    X86       OBJ       768
    X86       CONSTR1   402
    X86       CONSTR2   237
    X86       CONSTR3   20
    X86       CONSTR4   40
    X86       CONSTR5   271
    X86       CONSTR6   242
    X86       CONSTR7   669
    X86       CONSTR8   411
    X86       CONSTR9   655
    X86       CONSTR10  1
    X87       OBJ       928
    X87       CONSTR1   536
    X87       CONSTR2   676
    X87       CONSTR3   941
    X87       CONSTR4   798
    X87       CONSTR5   943
    X87       CONSTR6   620
    X87       CONSTR7   182
    X87       CONSTR8   692
    X87       CONSTR9   233
    X87       CONSTR10  307
    X88       OBJ       378
    X88       CONSTR1   900
    X88       CONSTR2   281
    X88       CONSTR3   652
    X88       CONSTR4   108
    X88       CONSTR5   201
    X88       CONSTR6   36
    X88       CONSTR7   376
    X88       CONSTR8   196
    X88       CONSTR9   724
    X88       CONSTR10  203
    X89       OBJ       948
    X89       CONSTR1   893
    X89       CONSTR2   145
    X89       CONSTR3   222
    X89       CONSTR4   628
    X89       CONSTR5   558
    X89       CONSTR6   881
    X89       CONSTR7   725
    X89       CONSTR8   302
    X89       CONSTR9   633
    X89       CONSTR10  806
    X90       OBJ       628
    X90       CONSTR1   814
    X90       CONSTR2   273
    X90       CONSTR3   914
    X90       CONSTR4   547
    X90       CONSTR5   926
    X90       CONSTR6   3
    X90       CONSTR7   635
    X90       CONSTR8   16
    X90       CONSTR9   743
    X90       CONSTR10  571
    X91       OBJ       530
    X91       CONSTR1   121
    X91       CONSTR2   567
    X91       CONSTR3   93
    X91       CONSTR4   123
    X91       CONSTR5   961
    X91       CONSTR6   192
    X91       CONSTR7   466
    X91       CONSTR8   251
    X91       CONSTR9   494
    X91       CONSTR10  334
    X92       OBJ       676
    X92       CONSTR1   601
    X92       CONSTR2   87
    X92       CONSTR3   634
    X92       CONSTR4   127
    X92       CONSTR5   357
    X92       CONSTR6   806
    X92       CONSTR7   398
    X92       CONSTR8   608
    X92       CONSTR9   36
    X92       CONSTR10  441
    X93       OBJ       662
    X93       CONSTR1   262
    X93       CONSTR2   692
    X93       CONSTR3   646
    X93       CONSTR4   231
    X93       CONSTR5   216
    X93       CONSTR6   761
    X93       CONSTR7   770
    X93       CONSTR8   751
    X93       CONSTR9   382
    X93       CONSTR10  489
    X94       OBJ       490
    X94       CONSTR1   207
    X94       CONSTR2   787
    X94       CONSTR3   343
    X94       CONSTR4   8
    X94       CONSTR5   110
    X94       CONSTR6   543
    X94       CONSTR7   611
    X94       CONSTR8   295
    X94       CONSTR9   25
    X94       CONSTR10  374
    X95       OBJ       1006
    X95       CONSTR1   735
    X95       CONSTR2   878
    X95       CONSTR3   923
    X95       CONSTR4   781
    X95       CONSTR5   419
    X95       CONSTR6   806
    X95       CONSTR7   285
    X95       CONSTR8   180
    X95       CONSTR9   187
    X95       CONSTR10  695
    X96       OBJ       949
    X96       CONSTR1   125
    X96       CONSTR2   857
    X96       CONSTR3   613
    X96       CONSTR4   862
    X96       CONSTR5   627
    X96       CONSTR6   118
    X96       CONSTR7   688
    X96       CONSTR8   904
    X96       CONSTR9   883
    X96       CONSTR10  929
    X97       OBJ       822
    X97       CONSTR1   755
    X97       CONSTR2   821
    X97       CONSTR3   808
    X97       CONSTR4   810
    X97       CONSTR5   267
    X97       CONSTR6   543
    X97       CONSTR7   921
    X97       CONSTR8   13
    X97       CONSTR9   483
    X97       CONSTR10  411
    X98       OBJ       694
    X98       CONSTR1   581
    X98       CONSTR2   89
    X98       CONSTR3   264
    X98       CONSTR4   638
    X98       CONSTR5   111
    X98       CONSTR6   810
    X98       CONSTR7   640
    X98       CONSTR8   695
    X98       CONSTR9   923
    X98       CONSTR10  438
    X99       OBJ       1013
    X99       CONSTR1   464
    X99       CONSTR2   983
    X99       CONSTR3   160
    X99       CONSTR4   248
    X99       CONSTR5   742
    X99       CONSTR6   272
    X99       CONSTR7   853
    X99       CONSTR8   726
    X99       CONSTR9   860
    X99       CONSTR10  416
    X100      OBJ       600
    X100      CONSTR1   674
    X100      CONSTR2   388
    X100      CONSTR3   254
    X100      CONSTR4   198
    X100      CONSTR5   211
    X100      CONSTR6   461
    X100      CONSTR7   856
    X100      CONSTR8   615
    X100      CONSTR9   249
    X100      CONSTR10  805
    INT0001   'MARKER'  'INTEND'
RHS
    RHS10001  CONSTR1   13640
    RHS10001  CONSTR2   12048
    RHS10001  CONSTR3   12574
    RHS10001  CONSTR4   13915
    RHS10001  CONSTR5   13232
    RHS10001  CONSTR6   12190
    RHS10001  CONSTR7   12242
    RHS10001  CONSTR8   12394
    RHS10001  CONSTR9   12258
    RHS10001  CONSTR10  10960
BOUNDS
 BV BND       X1        .00
 BV BND       X2        .00
 BV BND       X3        .00
 BV BND       X4        .00
 BV BND       X5        .00
 BV BND       X6        .00
 BV BND       X7        .00
 BV BND       X8        .00
 BV BND       X9        .00
 BV BND       X10       .00
 BV BND       X11       .00
 BV BND       X12       .00
 BV BND       X13       .00
 BV BND       X14       .00
 BV BND       X15       .00
 BV BND       X16       .00
 BV BND       X17       .00
 BV BND       X18       .00
 BV BND       X19       .00
 BV BND       X20       .00
 BV BND       X21       .00
 BV BND       X22       .00
 BV BND       X23       .00
 BV BND       X24       .00
 BV BND       X25       .00
 BV BND       X26       .00
 BV BND       X27       .00
 BV BND       X28       .00
 BV BND       X29       .00
 BV BND       X30       .00
 BV BND       X31       .00
 BV BND       X32       .00
 BV BND       X33       .00
 BV BND       X34       .00
 BV BND       X35       .00
 BV BND       X36       .00
 BV BND       X37       .00
 BV BND       X38       .00
 BV BND       X39       .00
 BV BND       X40       .00
 BV BND       X41       .00
 BV BND       X42       .00
 BV BND       X43       .00
 BV BND       X44       .00
 BV BND       X45       .00
 BV BND       X46       .00
 BV BND       X47       .00
 BV BND       X48       .00
 BV BND       X49       .00
 BV BND       X50       .00
 BV BND       X51       .00
 BV BND       X52       .00
 BV BND       X53       .00
 BV BND       X54       .00
 BV BND       X55       .00
 BV BND       X56       .00
 BV BND       X57       .00
 BV BND       X58       .00
 BV BND       X59       .00
 BV BND       X60       .00
 BV BND       X61       .00
 BV BND       X62       .00
 BV BND       X63       .00
 BV BND       X64       .00
 BV BND       X65       .00
 BV BND       X66       .00
 BV BND       X67       .00
 BV BND       X68       .00
 BV BND       X69       .00
 BV BND       X70       .00
 BV BND       X71       .00
 BV BND       X72       .00
 BV BND       X73       .00
 BV BND       X74       .00
 BV BND       X75       .00
 BV BND       X76       .00
 BV BND       X77       .00
 BV BND       X78       .00
 BV BND       X79       .00
 BV BND       X80       .00
 BV BND       X81       .00
 BV BND       X82       .00
 BV BND       X83       .00
 BV BND       X84       .00
 BV BND       X85       .00
 BV BND       X86       .00
 BV BND       X87       .00
 BV BND       X88       .00
 BV BND       X89       .00
 BV BND       X90       .00
 BV BND       X91       .00
 BV BND       X92       .00
 BV BND       X93       .00
 BV BND       X94       .00
 BV BND       X95       .00
 BV BND       X96       .00
 BV BND       X97       .00
 BV BND       X98       .00
 BV BND       X99       .00
 BV BND       X100      .00
ENDATA
